Version identifier: 12.10.0.0 | 2019-11-26 | 843d4de
CPXPARAM_Read_DataCheck                          1
CPXPARAM_RandomSeed                              201903125
CPXPARAM_TimeLimit                               7200
Parallel mode: deterministic, using up to 8 threads for concurrent optimization:
 * Starting dual Simplex on 1 thread...
 * Starting Barrier on 6 threads...
 * Starting primal Simplex on 1 thread...
Tried aggregator 1 time.
No LP presolve or aggregator reductions.
Presolve time = 0.00 sec. (4.39 ticks)

Iteration log . . .
Iteration:     1   Dual objective     =          1012.000000
Perturbation started.
Iteration:   101   Dual objective     =          1012.000000
Iteration:   222   Dual objective     =          1012.018598
Iteration:   431   Dual objective     =          1012.029693
Iteration:   656   Dual objective     =          1012.029697
Iteration:   880   Dual objective     =          1012.029700
Iteration:  1109   Dual objective     =          1012.029702
Iteration:  1342   Dual objective     =          1012.029704
Iteration:  1570   Dual objective     =          1012.029705
Iteration:  1801   Dual objective     =          1012.029705
Removing perturbation.

Dual simplex solved model.

